c uprop, v00.0, 
c reading from data/prog851.c.cnf
c done reading: 0
p cnf 125 462
-68 -73 0
-73 -76 0
68 73 76 0
68 76 -82 0
-68 -76 -82 0
-68 76 82 0
68 -76 82 0
73 -86 0
-86 -89 0
-73 86 89 0
-73 89 -95 0
73 -89 -95 0
73 89 95 0
-73 -89 95 0
86 -99 0
-86 99 0
-86 -102 0
86 102 0
99 -106 0
-99 106 0
-70 -99 0
70 99 0
-78 106 0
78 -106 0
-91 -106 0
91 106 0
-65 78 0
65 -78 0
-62 -78 0
62 78 0
-59 65 0
59 -65 0
-57 -65 0
57 65 0
-55 89 0
-55 68 0
55 -68 -89 0
-54 -68 -89 0
-54 68 89 0
54 68 -89 0
54 -68 89 0
52 -55 -76 0
-52 76 0
-52 55 0
-52 55 76 0
-51 -52 0
-51 -52 76 0
-51 -52 55 0
51 52 -76 0
51 52 -55 0
-51 55 76 0
49 -52 -89 0
-49 89 0
-49 52 0
-49 52 89 0
-48 -49 0
-48 -49 89 0
-48 -49 52 0
48 49 -89 0
48 49 -52 0
-48 52 89 0
46 -49 0
-46 49 0
51 -80 0
68 -80 0
-51 -68 80 0
-51 -68 -84 0
51 68 -84 0
-51 68 84 0
51 -68 84 0
-48 -76 93 0
-48 -80 93 0
-76 -80 93 0
48 76 -93 0
48 80 -93 0
76 80 -93 0
48 -93 -97 0
76 -93 -97 0
80 -93 -97 0
-48 93 97 0
-76 93 97 0
-80 93 97 0
-48 -76 -80 97 0
48 76 80 -97 0
-46 -89 0
-46 -93 0
-89 -93 0
-46 104 0
-89 104 0
-93 104 0
-46 -89 -93 104 0
46 89 93 -104 0
-68 -108 0
-76 -108 0
68 76 108 0
68 76 -109 0
-68 -76 -109 0
-68 76 109 0
68 -76 109 0
108 -110 0
-54 -110 0
54 -108 110 0
54 -108 -111 0
-54 108 -111 0
54 108 111 0
-54 -108 111 0
110 -112 0
-84 -112 0
84 -110 112 0
84 -110 -113 0
-84 110 -113 0
84 110 113 0
-84 -110 113 0
112 -114 0
-97 -114 0
97 -112 114 0
97 -112 -115 0
-97 112 -115 0
97 112 115 0
-97 -112 115 0
114 -116 0
-104 -116 0
104 -114 116 0
104 -114 -117 0
-104 114 -117 0
104 114 117 0
-104 -114 117 0
116 -118 0
-116 118 0
-116 -119 0
116 119 0
118 -120 0
-118 120 0
-74 -118 0
74 118 0
-83 120 0
83 -120 0
-87 -120 0
87 120 0
83 -96 0
-83 96 0
-83 -100 0
83 100 0
96 -103 0
-96 103 0
-96 -107 0
96 107 0
-71 103 0
71 -103 0
-79 -103 0
79 103 0
-92 -122 0
92 122 0
-66 122 0
66 -122 0
-63 92 0
-63 -123 0
63 -92 123 0
-60 -92 123 0
-60 92 -123 0
60 92 123 0
60 -92 -123 0
-58 63 0
-58 -125 0
58 -63 125 0
-45 -63 125 0
-45 63 -125 0
45 63 125 0
45 -63 -125 0
-44 58 0
-43 -44 0
43 44 -58 0
-42 43 -58 0
-42 -43 58 0
42 43 58 0
42 -43 -58 0
-41 44 0
-40 -41 0
40 41 -44 0
-38 40 -44 0
-38 -40 44 0
38 40 44 0
38 -40 -44 0
-37 41 0
-36 -37 0
36 37 -41 0
-35 36 -41 0
-35 -36 41 0
35 36 41 0
35 -36 -41 0
-34 37 0
-33 -34 0
33 34 -37 0
-31 33 -37 0
-31 -33 37 0
31 33 37 0
31 -33 -37 0
-30 122 0
30 -122 0
29 -122 -123 0
-29 122 123 0
-29 123 0
-29 122 0
-28 -29 123 0
-28 -29 122 0
-28 -29 0
28 29 -123 0
28 29 -122 0
-28 122 123 0
27 -123 -125 0
27 -29 -125 0
27 -29 -123 0
-27 123 125 0
-27 29 125 0
-27 29 123 0
-26 -27 125 0
-26 -27 123 0
-26 -27 29 0
26 27 -125 0
26 27 -123 0
26 27 -29 0
26 -29 -123 -125 0
-26 29 123 125 0
25 -43 -125 0
25 -27 -43 0
25 -27 -125 0
-25 43 125 0
-25 27 43 0
-25 27 125 0
-24 -25 43 0
-24 -25 125 0
-24 -25 27 0
24 25 -43 0
24 25 -125 0
24 25 -27 0
24 -27 -43 -125 0
-24 27 43 125 0
23 -40 -43 0
23 -25 -40 0
23 -25 -43 0
-23 40 43 0
-23 25 40 0
-23 25 43 0
-22 -23 40 0
-22 -23 43 0
-22 -23 25 0
22 23 -40 0
22 23 -43 0
22 23 -25 0
22 -25 -40 -43 0
-22 25 40 43 0
21 -36 -40 0
21 -23 -36 0
21 -23 -40 0
-21 36 40 0
-21 23 36 0
-21 23 40 0
-20 -21 36 0
-20 -21 40 0
-20 -21 23 0
20 21 -36 0
20 21 -40 0
20 21 -23 0
20 -23 -36 -40 0
-20 23 36 40 0
19 -33 -36 0
19 -21 -33 0
19 -21 -36 0
-19 33 36 0
-19 21 33 0
-19 21 36 0
-19 33 -67 0
-19 36 -67 0
-19 21 -67 0
19 -33 67 0
19 -36 67 0
19 -21 67 0
-21 -33 -36 67 0
21 33 36 -67 0
33 -75 0
19 -75 0
-19 -33 75 0
-19 -33 -88 0
19 33 -88 0
19 -33 88 0
-19 33 88 0
-18 24 0
18 -24 0
17 -22 -122 0
-17 22 122 0
-17 22 0
-17 122 0
-16 -17 22 0
-16 -17 122 0
-16 -17 0
16 17 -22 0
16 17 -122 0
-16 22 122 0
15 -20 -123 0
15 -17 -20 0
15 -17 -123 0
-15 20 123 0
-15 17 20 0
-15 17 123 0
-14 -15 20 0
-14 -15 123 0
-14 -15 17 0
14 15 -20 0
14 15 -123 0
14 15 -17 0
14 -17 -20 -123 0
-14 17 20 123 0
-67 121 -125 0
-15 -67 121 0
-15 121 -125 0
67 -121 125 0
15 67 -121 0
15 -121 125 0
-67 121 0
121 -125 0
-15 121 0
-15 -67 -125 0
-43 -88 124 0
-88 -121 124 0
-43 -121 124 0
43 88 -124 0
88 121 -124 0
43 121 -124 0
-88 124 0
-43 124 0
-121 124 0
-43 -88 -121 0
39 -40 -75 0
39 -75 -124 0
39 -40 -124 0
-39 40 75 0
-39 75 124 0
-39 40 124 0
39 -75 0
39 -40 0
39 -124 0
-40 -75 -124 0
-32 36 0
-32 39 0
32 -36 -39 0
-36 39 0
36 -39 0
-32 -33 0
32 -33 0
-32 33 0
-13 -30 0
13 30 0
-12 30 0
12 -30 0
-11 13 0
-11 -28 0
11 -13 28 0
-10 -13 28 0
-10 13 -28 0
10 13 28 0
10 -13 -28 0
-9 11 0
-9 -26 0
9 -11 26 0
-8 -11 26 0
-8 11 -26 0
8 11 26 0
8 -11 -26 0
-7 9 0
-7 -18 0
7 -9 18 0
-6 -9 18 0
-6 9 -18 0
6 9 18 0
6 -9 -18 0
-5 7 0
-5 -16 0
5 -7 16 0
-4 -7 16 0
-4 7 -16 0
4 7 16 0
4 -7 -16 0
-3 5 0
-3 -14 0
3 -5 14 0
-2 -5 14 0
-2 5 -14 0
2 5 14 0
2 -5 -14 0
-1 3 0
1 -3 0
-3 -72 0
3 72 0
1 -81 0
-1 81 0
-1 -85 0
1 85 0
81 -94 0
-81 94 0
-81 -98 0
81 98 0
94 -101 0
-94 101 0
-94 -105 0
94 105 0
-69 101 0
69 -101 0
-77 -101 0
77 101 0
69 -90 0
-69 90 0
-64 -69 0
64 69 0
-61 68 0
30 -61 0
-30 61 -68 0
30 -68 0
-30 68 0
-28 56 -76 0
56 -61 -76 0
-28 56 -61 0
28 -56 76 0
-56 61 76 0
28 -56 61 0
56 -76 0
-28 56 0
56 -61 0
-28 -61 -76 0
-26 53 -54 0
53 -54 -56 0
-26 53 -56 0
26 -53 54 0
-53 54 56 0
26 -53 56 0
-53 54 0
26 -53 0
-53 56 0
26 54 56 0
-18 50 -84 0
50 -53 -84 0
-18 50 -53 0
18 -50 84 0
-50 53 84 0
18 -50 53 0
-50 84 0
18 -50 0
-50 53 0
18 53 84 0
-16 47 -97 0
47 -50 -97 0
-16 47 -50 0
16 -47 97 0
-47 50 97 0
16 -47 50 0
47 -97 0
-16 47 0
47 -50 0
-16 -50 -97 0
-14 -104 0
-47 -104 0
-14 -47 0
14 47 104 0
